;symbolic execution tree
(push)
(assert (le x0 java.lang.Object))
(check-sat)
(push)
(assert (le x0 weka.core.FastVector))
(check-sat)
(push)
(assert (le x0 weka.core.FastVector))
(check-sat)
(push)
(assert (le x0 weka.core.FastVector))
(check-sat)
(push)
(assert (le x0 weka.core.FastVector))
(check-sat)
(pop)
(push)
(assert (not (le x0 weka.core.FastVector)))
(check-sat)
(pop)
(pop)
(push)
(assert (not (le x0 weka.core.FastVector)))
(check-sat)
(pop)
(pop)
(push)
(assert (not (le x0 weka.core.FastVector)))
(check-sat)
(pop)
(push)
(assert (le x0 weka.core.FastVector))
(check-sat)
(pop)
(push)
(assert (not (le x0 weka.core.FastVector)))
(check-sat)
(pop)
(push)
(assert (le x0 weka.core.FastVector))
(check-sat)
(pop)
(push)
(assert (not (le x0 weka.core.FastVector)))
(check-sat)
(pop)
(push)
(assert (le x0 weka.core.FastVector))
(check-sat)
(push)
(assert (le x0 weka.core.FastVector))
(check-sat)
(push)
(assert (le x0 weka.core.FastVector))
(check-sat)
(push)
(assert (le x0 weka.core.FastVector))
(check-sat)
(pop)
(push)
(assert (not (le x0 weka.core.FastVector)))
(check-sat)
(pop)
(pop)
(push)
(assert (not (le x0 weka.core.FastVector)))
(check-sat)
(pop)
(push)
(assert (le x0 weka.core.FastVector))
(check-sat)
(pop)
(push)
(assert (not (le x0 weka.core.FastVector)))
(check-sat)
(pop)
(pop)
(push)
(assert (not (le x0 weka.core.FastVector)))
(check-sat)
(pop)
(push)
(assert (le x0 weka.core.FastVector))
(check-sat)
(push)
(assert (le x0 weka.core.FastVector))
(check-sat)
(pop)
(push)
(assert (not (le x0 weka.core.FastVector)))
(check-sat)
(pop)
(push)
(assert (le x0 weka.core.FastVector))
(check-sat)
(pop)
(push)
(assert (not (le x0 weka.core.FastVector)))
(check-sat)
(pop)
(pop)
(push)
(assert (not (le x0 weka.core.FastVector)))
(check-sat)
(pop)
(push)
(assert (le x0 weka.core.FastVector))
(check-sat)
(push)
(assert (le x0 weka.core.FastVector))
(check-sat)
(pop)
(push)
(assert (not (le x0 weka.core.FastVector)))
(check-sat)
(pop)
(push)
(assert (le x0 weka.core.FastVector))
(check-sat)
(pop)
(push)
(assert (not (le x0 weka.core.FastVector)))
(check-sat)
(pop)
(push)
(assert (le x0 weka.core.FastVector))
(check-sat)
(push)
(assert (le x0 weka.core.FastVector))
(check-sat)
(pop)
(push)
(assert (not (le x0 weka.core.FastVector)))
(check-sat)
(pop)
(push)
(assert (le x0 weka.core.FastVector))
(check-sat)
(pop)
(push)
(assert (not (le x0 weka.core.FastVector)))
(check-sat)
(pop)
(pop)
(push)
(assert (not (le x0 weka.core.FastVector)))
(check-sat)
(pop)
(pop)
(push)
(assert (not (le x0 weka.core.FastVector)))
(check-sat)
(pop)
(pop)
(push)
(assert (not (le x0 weka.core.FastVector)))
(check-sat)
(pop)
(push)
(assert (le x0 weka.core.FastVector))
(check-sat)
(push)
(assert (le x0 weka.core.FastVector))
(check-sat)
(pop)
(push)
(assert (not (le x0 weka.core.FastVector)))
(check-sat)
(pop)
(pop)
(push)
(assert (not (le x0 weka.core.FastVector)))
(check-sat)
(pop)
(push)
(assert (le x0 weka.core.FastVector))
(check-sat)
(pop)
(push)
(assert (not (le x0 weka.core.FastVector)))
(check-sat)
(pop)
(push)
(assert (le x0 weka.core.FastVector))
(check-sat)
(push)
(assert (le x0 weka.core.FastVector))
(check-sat)
(pop)
(push)
(assert (not (le x0 weka.core.FastVector)))
(check-sat)
(pop)
(pop)
(push)
(assert (not (le x0 weka.core.FastVector)))
(check-sat)
(pop)
(push)
(assert (le x0 weka.core.FastVector))
(check-sat)
(push)
(assert (le x0 weka.core.FastVector))
(check-sat)
(push)
(assert (le x0 weka.core.FastVector))
(check-sat)
(pop)
(push)
(assert (not (le x0 weka.core.FastVector)))
(check-sat)
(pop)
(pop)
(push)
(assert (not (le x0 weka.core.FastVector)))
(check-sat)
(pop)
(pop)
(push)
(assert (not (le x0 weka.core.FastVector)))
(check-sat)
(pop)
(push)
(assert (le x0 weka.core.FastVector))
(check-sat)
(push)
(assert (le x0 weka.core.FastVector))
(check-sat)
(pop)
(push)
(assert (not (le x0 weka.core.FastVector)))
(check-sat)
(pop)
(pop)
(push)
(assert (not (le x0 weka.core.FastVector)))
(check-sat)
(pop)
(push)
(assert (le x0 weka.core.FastVector))
(check-sat)
(pop)
(push)
(assert (not (le x0 weka.core.FastVector)))
(check-sat)
(pop)
(pop)
(push)
(assert (not (le x0 weka.core.FastVector)))
(check-sat)
(push)
(assert (le x0 weka.core.FastVector))
(check-sat)
(pop)
(push)
(assert (not (le x0 weka.core.FastVector)))
(check-sat)
(push)
(assert (le x0 weka.core.FastVector))
(check-sat)
(pop)
(push)
(assert (not (le x0 weka.core.FastVector)))
(check-sat)
(pop)
(pop)
(push)
(assert (le x0 weka.core.FastVector))
(check-sat)
(pop)
(push)
(assert (not (le x0 weka.core.FastVector)))
(check-sat)
(pop)
(push)
(assert (le x0 weka.core.FastVector))
(check-sat)
(pop)
(push)
(assert (not (le x0 weka.core.FastVector)))
(check-sat)
(push)
(assert (le x0 weka.core.FastVector))
(check-sat)
(pop)
(push)
(assert (not (le x0 weka.core.FastVector)))
(check-sat)
(push)
(assert (le x0 weka.core.FastVector))
(check-sat)
(pop)
(push)
(assert (not (le x0 weka.core.FastVector)))
(check-sat)
(pop)
(pop)
(push)
(assert (le x0 weka.core.FastVector))
(check-sat)
(pop)
(push)
(assert (not (le x0 weka.core.FastVector)))
(check-sat)
(pop)
(push)
(assert (le x0 weka.core.FastVector))
(check-sat)
(pop)
(push)
(assert (not (le x0 weka.core.FastVector)))
(check-sat)
(pop)
(pop)
(push)
(assert (le x0 weka.core.FastVector))
(check-sat)
(pop)
(push)
(assert (not (le x0 weka.core.FastVector)))
(check-sat)
(push)
(assert (le x0 weka.core.FastVector))
(check-sat)
(pop)
(push)
(assert (not (le x0 weka.core.FastVector)))
(check-sat)
(pop)
(push)
(assert (le x0 weka.core.FastVector))
(check-sat)
(pop)
(push)
(assert (not (le x0 weka.core.FastVector)))
(check-sat)
(push)
(assert (le x0 weka.core.FastVector))
(check-sat)
(pop)
(push)
(assert (not (le x0 weka.core.FastVector)))
(check-sat)
(pop)
(pop)
(push)
(assert (le x0 weka.core.FastVector))
(check-sat)
(pop)
(push)
(assert (not (le x0 weka.core.FastVector)))
(check-sat)
(push)
(assert (le x0 weka.core.FastVector))
(check-sat)
(pop)
(push)
(assert (not (le x0 weka.core.FastVector)))
(check-sat)
(pop)
(pop)
(pop)
(push)
(assert (le x0 weka.core.FastVector))
(check-sat)
(pop)
(push)
(assert (not (le x0 weka.core.FastVector)))
(check-sat)
(push)
(assert (le x0 weka.core.FastVector))
(check-sat)
(pop)
(push)
(assert (not (le x0 weka.core.FastVector)))
(check-sat)
(pop)
(push)
(assert (le x0 weka.core.FastVector))
(check-sat)
(pop)
(push)
(assert (not (le x0 weka.core.FastVector)))
(check-sat)
(push)
(assert (le x0 weka.core.FastVector))
(check-sat)
(pop)
(push)
(assert (not (le x0 weka.core.FastVector)))
(check-sat)
(push)
(assert (le x0 weka.core.FastVector))
(check-sat)
(pop)
(push)
(assert (not (le x0 weka.core.FastVector)))
(check-sat)
(pop)
(pop)
(pop)
(push)
(assert (le x0 weka.core.FastVector))
(check-sat)
(pop)
(push)
(assert (not (le x0 weka.core.FastVector)))
(check-sat)
(pop)
(pop)
(push)
(assert (le x0 weka.core.FastVector))
(check-sat)
(pop)
(push)
(assert (not (le x0 weka.core.FastVector)))
(check-sat)
(push)
(assert (le x0 weka.core.FastVector))
(check-sat)
(pop)
(push)
(assert (not (le x0 weka.core.FastVector)))
(check-sat)
(pop)
(push)
(assert (le x0 weka.core.FastVector))
(check-sat)
(pop)
(push)
(assert (not (le x0 weka.core.FastVector)))
(check-sat)
(push)
(assert (le x0 weka.core.FastVector))
(check-sat)
(pop)
(push)
(assert (not (le x0 weka.core.FastVector)))
(check-sat)
(pop)
(pop)
(push)
(assert (le x0 weka.core.FastVector))
(check-sat)
(pop)
(push)
(assert (not (le x0 weka.core.FastVector)))
(check-sat)
(pop)
(pop)
(push)
(assert (le x0 weka.core.FastVector))
(check-sat)
(pop)
(push)
(assert (not (le x0 weka.core.FastVector)))
(check-sat)
(pop)
(push)
(assert (le x0 weka.core.FastVector))
(check-sat)
(pop)
(push)
(assert (not (le x0 weka.core.FastVector)))
(check-sat)
(push)
(assert (le x0 weka.core.FastVector))
(check-sat)
(pop)
(push)
(assert (not (le x0 weka.core.FastVector)))
(check-sat)
(pop)
(push)
(assert (le x0 weka.core.FastVector))
(check-sat)
(pop)
(push)
(assert (not (le x0 weka.core.FastVector)))
(check-sat)
(push)
(assert (le x0 weka.core.FastVector))
(check-sat)
(pop)
(push)
(assert (not (le x0 weka.core.FastVector)))
(check-sat)
(push)
(assert (le x0 weka.core.FastVector))
(check-sat)
(pop)
(push)
(assert (not (le x0 weka.core.FastVector)))
(check-sat)
(pop)
(pop)
(pop)
(pop)
(push)
(assert (le x0 weka.core.FastVector))
(check-sat)
(pop)
(push)
(assert (not (le x0 weka.core.FastVector)))
(check-sat)
(push)
(assert (le x0 weka.core.FastVector))
(check-sat)
(pop)
(push)
(assert (not (le x0 weka.core.FastVector)))
(check-sat)
(push)
(assert (le x0 weka.core.FastVector))
(check-sat)
(pop)
(push)
(assert (not (le x0 weka.core.FastVector)))
(check-sat)
(push)
(assert (le x0 weka.core.FastVector))
(check-sat)
(pop)
(push)
(assert (not (le x0 weka.core.FastVector)))
(check-sat)
(pop)
(pop)
(pop)
(pop)
(push)
(assert (le x0 weka.core.FastVector))
(check-sat)
(pop)
(push)
(assert (not (le x0 weka.core.FastVector)))
(check-sat)
(pop)
(push)
(assert (le x0 weka.core.FastVector))
(check-sat)
(pop)
(push)
(assert (not (le x0 weka.core.FastVector)))
(check-sat)
(push)
(assert (le x0 weka.core.FastVector))
(check-sat)
(pop)
(push)
(assert (not (le x0 weka.core.FastVector)))
(check-sat)
(push)
(assert (le x0 weka.core.FastVector))
(check-sat)
(pop)
(push)
(assert (not (le x0 weka.core.FastVector)))
(check-sat)
(push)
(assert (le x0 weka.core.FastVector))
(check-sat)
(pop)
(push)
(assert (not (le x0 weka.core.FastVector)))
(check-sat)
(pop)
(pop)
(push)
(assert (le x0 weka.core.FastVector))
(check-sat)
(pop)
(push)
(assert (not (le x0 weka.core.FastVector)))
(check-sat)
(pop)
(push)
(assert (le x0 weka.core.FastVector))
(check-sat)
(pop)
(push)
(assert (not (le x0 weka.core.FastVector)))
(check-sat)
(pop)
(push)
(assert (le x0 weka.core.FastVector))
(check-sat)
(pop)
(push)
(assert (not (le x0 weka.core.FastVector)))
(check-sat)
(pop)
(push)
(assert (le x0 weka.core.FastVector))
(check-sat)
(pop)
(push)
(assert (not (le x0 weka.core.FastVector)))
(check-sat)
(pop)
(push)
(assert (le x0 weka.core.FastVector))
(check-sat)
(pop)
(push)
(assert (not (le x0 weka.core.FastVector)))
(check-sat)
(pop)
(push)
(assert (le x0 weka.core.FastVector))
(check-sat)
(pop)
(push)
(assert (not (le x0 weka.core.FastVector)))
(check-sat)
(push)
(assert (le x0 weka.core.FastVector))
(check-sat)
(pop)
(push)
(assert (not (le x0 weka.core.FastVector)))
(check-sat)
(pop)
(push)
(assert (le x0 weka.core.FastVector))
(check-sat)
(pop)
(push)
(assert (not (le x0 weka.core.FastVector)))
(check-sat)
(pop)
(push)
(assert (le x0 weka.core.FastVector))
(check-sat)
(pop)
(push)
(assert (not (le x0 weka.core.FastVector)))
(check-sat)
(pop)
(pop)
(pop)
(push)
(assert (le x0 weka.core.FastVector))
(check-sat)
(pop)
(push)
(assert (not (le x0 weka.core.FastVector)))
(check-sat)
(push)
(assert (le x0 weka.core.FastVector))
(check-sat)
(pop)
(push)
(assert (not (le x0 weka.core.FastVector)))
(check-sat)
(pop)
(pop)
(pop)
(push)
(assert (le x0 weka.core.FastVector))
(check-sat)
(pop)
(push)
(assert (not (le x0 weka.core.FastVector)))
(check-sat)
(push)
(assert (le x0 weka.core.FastVector))
(check-sat)
(pop)
(push)
(assert (not (le x0 weka.core.FastVector)))
(check-sat)
(pop)
(pop)
(push)
(assert (le x0 weka.core.FastVector))
(check-sat)
(pop)
(push)
(assert (not (le x0 weka.core.FastVector)))
(check-sat)
(push)
(assert (le x0 weka.core.FastVector))
(check-sat)
(pop)
(push)
(assert (not (le x0 weka.core.FastVector)))
(check-sat)
(pop)
(push)
(assert (le x0 weka.core.FastVector))
(check-sat)
(pop)
(push)
(assert (not (le x0 weka.core.FastVector)))
(check-sat)
(pop)
(push)
(assert (le x0 weka.core.FastVector))
(check-sat)
(pop)
(push)
(assert (not (le x0 weka.core.FastVector)))
(check-sat)
(push)
(assert (le x0 weka.core.FastVector))
(check-sat)
(pop)
(push)
(assert (not (le x0 weka.core.FastVector)))
(check-sat)
(push)
(assert (le x0 weka.core.FastVector))
(check-sat)
(pop)
(push)
(assert (not (le x0 weka.core.FastVector)))
(check-sat)
(pop)
(pop)
(pop)
(push)
(assert (le x0 weka.core.FastVector))
(check-sat)
(pop)
(push)
(assert (not (le x0 weka.core.FastVector)))
(check-sat)
(push)
(assert (le x0 weka.core.FastVector))
(check-sat)
(pop)
(push)
(assert (not (le x0 weka.core.FastVector)))
(check-sat)
(pop)
(push)
(assert (le x0 weka.core.FastVector))
(check-sat)
(pop)
(push)
(assert (not (le x0 weka.core.FastVector)))
(check-sat)
(push)
(assert (le x0 weka.core.FastVector))
(check-sat)
(pop)
(push)
(assert (not (le x0 weka.core.FastVector)))
(check-sat)
(pop)
(pop)
(push)
(assert (le x0 weka.core.FastVector))
(check-sat)
(pop)
(push)
(assert (not (le x0 weka.core.FastVector)))
(check-sat)
(push)
(assert (le x0 weka.core.FastVector))
(check-sat)
(pop)
(push)
(assert (not (le x0 weka.core.FastVector)))
(check-sat)
(pop)
(pop)
(push)
(assert (le x0 weka.core.FastVector))
(check-sat)
(pop)
(push)
(assert (not (le x0 weka.core.FastVector)))
(check-sat)
(push)
(assert (le x0 weka.core.FastVector))
(check-sat)
(pop)
(push)
(assert (not (le x0 weka.core.FastVector)))
(check-sat)
(pop)
(pop)
(push)
(assert (le x0 weka.core.FastVector))
(check-sat)
(pop)
(push)
(assert (not (le x0 weka.core.FastVector)))
(check-sat)
(pop)
(push)
(assert (le x0 weka.core.FastVector))
(check-sat)
(pop)
(push)
(assert (not (le x0 weka.core.FastVector)))
(check-sat)
(push)
(assert (le x0 weka.core.FastVector))
(check-sat)
(pop)
(push)
(assert (not (le x0 weka.core.FastVector)))
(check-sat)
(pop)
(pop)
(pop)
(push)
(assert (le x0 weka.core.FastVector))
(check-sat)
(pop)
(push)
(assert (not (le x0 weka.core.FastVector)))
(check-sat)
(push)
(assert (le x0 weka.core.FastVector))
(check-sat)
(pop)
(push)
(assert (not (le x0 weka.core.FastVector)))
(check-sat)
(pop)
(push)
(assert (le x0 weka.core.FastVector))
(check-sat)
(pop)
(push)
(assert (not (le x0 weka.core.FastVector)))
(check-sat)
(pop)
(pop)
(push)
(assert (le x0 weka.core.FastVector))
(check-sat)
(pop)
(push)
(assert (not (le x0 weka.core.FastVector)))
(check-sat)
(pop)
(pop)
(push)
(assert (le x0 weka.core.FastVector))
(check-sat)
(pop)
(push)
(assert (not (le x0 weka.core.FastVector)))
(check-sat)
(pop)
(pop)
